jobs  (incl. supersource/sink ):	52
RESOURCES
- renewable                 : 2 R
- nonrenewable              : 4 N
- doubly constrained        : 0 D
************************************************************************
PRECEDENCE RELATIONS:
jobnr.    #modes  #successors   successors
1	1	6		2 3 4 5 6 8 
2	6	7		26 18 15 14 13 10 9 
3	6	6		26 21 15 14 13 7 
4	6	8		32 29 28 20 16 15 13 11 
5	6	6		29 20 19 15 13 10 
6	6	7		32 29 25 22 20 15 12 
7	6	7		29 28 27 23 22 20 19 
8	6	5		27 26 25 20 15 
9	6	7		51 33 29 27 24 22 21 
10	6	6		33 32 28 25 24 17 
11	6	5		27 24 23 21 18 
12	6	5		51 27 24 23 21 
13	6	5		39 27 25 22 17 
14	6	4		34 33 30 20 
15	6	5		49 38 35 34 23 
16	6	6		51 49 37 35 34 24 
17	6	10		51 50 49 40 38 37 36 35 34 30 
18	6	10		51 49 39 38 37 36 35 34 31 30 
19	6	10		50 49 45 40 39 38 36 32 31 30 
20	6	5		51 49 45 35 24 
21	6	9		50 49 48 42 37 36 35 34 31 
22	6	7		49 40 38 37 36 34 30 
23	6	6		50 40 36 33 31 30 
24	6	8		50 48 46 43 39 38 36 31 
25	6	8		51 48 47 44 42 41 37 34 
26	6	6		46 45 44 43 39 36 
27	6	6		48 46 45 44 43 36 
28	6	5		47 45 44 42 36 
29	6	5		48 47 45 43 41 
30	6	4		48 46 44 43 
31	6	3		47 44 41 
32	6	3		44 42 41 
33	6	2		42 37 
34	6	2		46 43 
35	6	2		46 43 
36	6	1		41 
37	6	1		45 
38	6	1		47 
39	6	1		42 
40	6	1		42 
41	6	1		52 
42	6	1		52 
43	6	1		52 
44	6	1		52 
45	6	1		52 
46	6	1		52 
47	6	1		52 
48	6	1		52 
49	6	1		52 
50	6	1		52 
51	6	1		52 
52	1	0		
************************************************************************
REQUESTS/DURATIONS
jobnr.	mode	dur	R1	R2	N1	N2	N3	N4	
------------------------------------------------------------------------
1	1	0	0	0	0	0	0	0	
2	1	4	15	6	15	9	10	16	
	2	5	11	5	12	8	10	15	
	3	9	10	5	11	7	9	14	
	4	15	6	4	11	7	8	13	
	5	16	5	4	8	6	7	12	
	6	17	3	4	7	5	7	10	
3	1	1	12	10	20	18	13	9	
	2	6	11	9	19	15	12	9	
	3	7	10	6	19	15	10	8	
	4	8	8	6	19	13	9	8	
	5	15	7	3	18	11	8	7	
	6	17	5	2	18	11	8	7	
4	1	5	7	16	8	18	12	16	
	2	6	7	11	7	15	10	15	
	3	11	7	9	6	12	8	12	
	4	14	7	8	5	12	8	9	
	5	19	7	6	5	9	4	9	
	6	20	7	2	4	7	4	5	
5	1	6	6	16	18	16	2	19	
	2	9	5	16	17	15	1	18	
	3	10	5	16	15	12	1	15	
	4	14	4	16	15	8	1	15	
	5	15	3	16	14	8	1	12	
	6	20	3	16	13	4	1	11	
6	1	1	13	10	9	12	8	16	
	2	2	12	9	9	11	8	12	
	3	6	9	8	8	11	7	12	
	4	7	7	8	8	11	4	9	
	5	10	5	6	7	10	4	6	
	6	19	5	6	7	9	2	4	
7	1	2	17	10	18	16	18	18	
	2	8	15	10	16	14	15	14	
	3	9	14	10	15	11	12	14	
	4	16	11	10	12	9	12	9	
	5	18	9	10	11	8	10	8	
	6	19	7	10	9	7	8	5	
8	1	2	7	5	17	17	7	12	
	2	10	6	5	17	15	6	11	
	3	11	5	5	17	13	6	10	
	4	13	3	5	17	12	6	8	
	5	14	2	5	17	8	5	7	
	6	20	2	5	17	7	4	6	
9	1	3	17	16	9	16	16	8	
	2	7	17	16	9	14	16	7	
	3	9	17	16	9	12	14	7	
	4	11	17	16	9	10	13	6	
	5	14	17	16	8	7	13	6	
	6	16	17	16	8	6	11	6	
10	1	9	19	19	14	13	18	8	
	2	10	16	18	13	12	18	7	
	3	11	14	15	12	12	15	6	
	4	16	11	13	10	11	15	4	
	5	17	6	11	10	10	14	4	
	6	19	5	11	9	8	12	3	
11	1	3	18	5	8	18	17	12	
	2	4	15	5	7	16	14	11	
	3	5	13	5	5	13	14	11	
	4	6	10	5	4	7	13	11	
	5	9	9	4	4	4	11	10	
	6	11	7	4	1	3	10	9	
12	1	3	13	11	11	7	17	6	
	2	8	12	9	11	6	16	5	
	3	9	10	9	11	6	15	4	
	4	10	9	6	10	6	14	4	
	5	13	7	4	10	5	13	3	
	6	17	6	2	9	4	10	2	
13	1	5	19	16	10	18	17	2	
	2	6	17	16	9	17	16	2	
	3	8	17	15	7	13	15	2	
	4	10	15	13	7	12	14	2	
	5	13	15	13	6	9	14	2	
	6	18	13	12	5	8	13	2	
14	1	3	6	18	16	7	16	12	
	2	9	5	18	15	6	14	11	
	3	10	5	16	12	6	12	11	
	4	12	4	15	12	6	11	10	
	5	13	4	15	10	5	9	10	
	6	14	4	13	7	4	6	10	
15	1	4	17	18	7	13	15	10	
	2	9	14	18	6	13	14	9	
	3	13	13	18	6	13	14	7	
	4	14	11	18	6	12	13	7	
	5	19	9	18	6	12	11	5	
	6	20	8	18	6	12	10	5	
16	1	2	18	5	12	17	17	12	
	2	3	17	4	12	17	15	10	
	3	4	16	4	11	17	13	10	
	4	5	14	4	11	16	10	8	
	5	8	14	2	11	15	9	8	
	6	15	12	2	10	15	8	7	
17	1	4	11	12	16	4	13	10	
	2	5	9	8	14	3	12	9	
	3	6	8	7	13	3	10	9	
	4	7	7	5	10	3	8	8	
	5	8	5	4	8	2	8	7	
	6	12	3	2	7	2	5	7	
18	1	3	17	19	11	16	18	7	
	2	5	17	15	10	15	14	7	
	3	7	17	15	10	15	12	7	
	4	11	17	14	9	15	9	7	
	5	17	16	12	9	14	6	7	
	6	20	16	9	8	14	5	7	
19	1	4	1	16	10	15	15	17	
	2	6	1	15	8	13	13	14	
	3	11	1	15	7	13	9	11	
	4	13	1	15	6	11	9	10	
	5	17	1	14	5	10	5	7	
	6	19	1	14	5	10	5	4	
20	1	2	13	8	19	19	11	13	
	2	5	11	7	14	19	11	12	
	3	6	9	6	13	19	11	10	
	4	8	9	6	10	19	11	10	
	5	9	6	5	9	19	11	7	
	6	13	5	5	7	19	11	7	
21	1	1	6	14	16	18	16	19	
	2	6	6	14	12	18	16	19	
	3	12	6	14	10	16	14	19	
	4	13	6	14	8	15	13	18	
	5	17	6	14	4	14	12	18	
	6	18	6	14	4	14	12	17	
22	1	5	7	9	6	16	16	16	
	2	10	6	9	5	15	15	15	
	3	12	6	8	5	15	15	12	
	4	16	5	8	4	14	12	11	
	5	17	5	6	3	14	11	8	
	6	18	5	6	1	14	10	6	
23	1	5	16	11	20	11	15	20	
	2	7	12	10	17	10	12	19	
	3	8	12	9	11	10	12	19	
	4	9	7	7	11	9	9	19	
	5	12	7	5	8	8	9	19	
	6	19	2	3	3	7	7	19	
24	1	3	8	2	14	13	15	12	
	2	7	6	2	13	12	12	10	
	3	9	5	2	13	12	12	9	
	4	16	4	2	11	11	9	9	
	5	19	2	2	10	11	7	8	
	6	20	1	2	9	11	5	7	
25	1	4	10	14	6	17	18	16	
	2	5	10	13	6	16	18	13	
	3	7	7	11	6	16	17	10	
	4	8	5	6	5	14	17	8	
	5	9	3	4	5	14	17	8	
	6	13	2	4	5	12	16	6	
26	1	2	13	9	15	18	9	5	
	2	8	10	9	13	17	9	5	
	3	10	10	9	11	16	8	5	
	4	14	8	9	9	16	6	4	
	5	17	8	9	7	14	4	4	
	6	19	6	9	6	14	2	4	
27	1	1	14	18	18	18	14	11	
	2	5	11	16	18	18	12	8	
	3	8	8	11	15	17	12	7	
	4	14	7	11	14	15	12	4	
	5	16	6	5	14	14	11	2	
	6	17	2	4	12	14	10	2	
28	1	2	11	15	13	16	3	4	
	2	4	10	14	13	16	3	3	
	3	8	9	14	12	16	3	3	
	4	11	9	12	10	15	3	2	
	5	12	8	11	8	15	3	2	
	6	16	8	11	7	15	3	1	
29	1	7	10	12	15	1	7	15	
	2	9	8	11	14	1	7	15	
	3	12	7	11	12	1	6	11	
	4	16	5	10	11	1	4	10	
	5	19	5	10	11	1	3	6	
	6	20	3	9	10	1	3	6	
30	1	4	16	7	16	13	4	7	
	2	10	15	6	15	11	4	6	
	3	11	15	5	11	10	4	5	
	4	12	14	4	10	8	3	5	
	5	15	14	4	9	6	2	4	
	6	16	14	3	5	6	2	3	
31	1	8	19	8	5	14	17	18	
	2	12	19	8	5	14	17	17	
	3	15	18	6	5	14	14	17	
	4	17	18	4	5	14	10	17	
	5	18	17	4	4	14	8	15	
	6	19	16	2	4	14	8	15	
32	1	1	7	19	17	15	11	17	
	2	3	7	19	16	15	10	17	
	3	9	5	18	15	15	9	16	
	4	10	5	17	11	14	9	16	
	5	11	2	17	10	14	9	15	
	6	17	1	16	9	14	8	15	
33	1	4	19	10	17	9	14	17	
	2	5	17	9	16	8	13	16	
	3	9	17	8	15	8	12	16	
	4	10	16	6	14	7	12	16	
	5	12	15	6	11	6	11	16	
	6	19	14	5	10	5	10	16	
34	1	5	8	9	3	17	19	8	
	2	6	8	8	3	17	15	8	
	3	7	8	8	3	17	14	7	
	4	17	8	6	3	17	12	5	
	5	18	7	5	3	17	10	4	
	6	19	7	4	3	17	7	4	
35	1	5	8	20	14	10	16	13	
	2	7	8	16	12	8	16	12	
	3	9	7	13	12	7	13	12	
	4	15	6	11	11	6	13	12	
	5	18	4	8	10	6	11	12	
	6	19	4	7	8	4	9	12	
36	1	3	10	11	20	14	6	6	
	2	4	9	11	19	13	6	6	
	3	5	9	11	19	11	6	5	
	4	12	6	11	19	8	6	4	
	5	13	5	11	19	7	6	3	
	6	16	4	11	19	6	6	3	
37	1	3	12	16	13	7	19	13	
	2	8	11	12	12	6	19	10	
	3	9	11	11	12	6	18	9	
	4	10	10	9	12	6	17	7	
	5	13	10	8	11	5	16	5	
	6	20	10	4	11	5	15	5	
38	1	4	7	7	17	7	14	3	
	2	5	6	7	15	7	14	2	
	3	6	5	7	14	6	13	2	
	4	7	5	6	10	5	11	2	
	5	12	4	5	9	4	8	2	
	6	17	4	5	8	4	8	2	
39	1	2	4	20	14	9	16	17	
	2	3	3	20	13	9	14	15	
	3	5	3	20	13	8	13	15	
	4	17	3	20	13	7	13	14	
	5	18	3	20	13	6	12	13	
	6	19	3	20	13	6	11	13	
40	1	4	20	10	17	17	10	19	
	2	7	19	9	16	17	10	17	
	3	9	18	8	14	17	9	11	
	4	12	18	6	12	16	8	11	
	5	13	17	3	9	15	7	5	
	6	18	17	2	7	15	5	2	
41	1	3	14	13	16	6	11	8	
	2	4	13	13	13	5	10	7	
	3	12	10	11	12	5	9	5	
	4	17	10	10	11	5	8	3	
	5	19	8	9	8	5	7	3	
	6	20	6	6	7	5	6	1	
42	1	5	17	20	17	16	18	7	
	2	6	15	20	16	16	16	7	
	3	9	14	20	15	15	15	7	
	4	11	13	20	14	15	11	6	
	5	18	13	20	12	14	10	6	
	6	19	11	20	12	14	6	6	
43	1	2	14	19	16	5	12	16	
	2	5	12	14	15	4	12	16	
	3	11	10	14	15	4	12	15	
	4	14	8	9	14	3	12	13	
	5	18	6	7	13	2	12	12	
	6	20	4	5	13	2	12	12	
44	1	6	18	12	15	13	8	12	
	2	9	18	12	15	13	7	11	
	3	13	17	10	13	11	7	10	
	4	18	14	8	11	10	6	9	
	5	19	13	6	10	10	5	9	
	6	20	12	6	9	8	5	8	
45	1	2	11	11	11	16	15	8	
	2	4	9	11	10	13	15	6	
	3	5	8	9	10	12	12	5	
	4	6	7	6	10	12	9	3	
	5	10	7	4	10	9	7	2	
	6	19	6	1	10	7	4	1	
46	1	8	20	20	12	15	13	7	
	2	9	17	17	11	14	12	6	
	3	10	16	15	11	14	8	5	
	4	15	15	12	11	13	6	4	
	5	18	12	9	10	13	4	2	
	6	19	10	6	10	12	3	2	
47	1	1	13	20	16	17	17	8	
	2	3	11	18	14	17	16	6	
	3	5	9	18	14	17	15	6	
	4	9	8	17	10	16	15	4	
	5	12	7	16	9	15	14	3	
	6	18	5	15	7	15	12	3	
48	1	2	12	12	14	17	18	8	
	2	3	11	10	12	14	16	7	
	3	4	9	8	11	10	15	7	
	4	5	8	6	11	9	12	6	
	5	7	7	4	9	6	12	6	
	6	11	5	3	7	4	11	6	
49	1	1	9	3	6	10	17	13	
	2	4	7	2	5	9	16	12	
	3	6	7	2	5	9	14	8	
	4	9	6	2	4	8	10	7	
	5	10	5	2	4	8	9	5	
	6	16	5	2	3	8	6	3	
50	1	1	17	8	15	17	8	20	
	2	2	16	7	12	15	6	18	
	3	6	14	7	10	13	4	16	
	4	7	11	5	8	11	4	14	
	5	8	7	4	4	9	2	14	
	6	9	5	3	4	9	2	12	
51	1	1	12	18	19	17	15	18	
	2	13	10	17	18	15	15	14	
	3	15	9	16	17	14	14	11	
	4	16	7	14	17	12	12	10	
	5	17	4	12	16	9	11	7	
	6	18	2	10	15	7	10	2	
52	1	0	0	0	0	0	0	0	
************************************************************************

 RESOURCE AVAILABILITIES 
	R 1	R 2	N 1	N 2	N 3	N 4
	50	49	544	561	522	467

************************************************************************
